p cnf 12 50 
6 -4 8 0
11 -5 9 0
-8 -2 -10 0
-12 -10 -7 0
1 -6 -4 0
5 -11 4 0
-1 8 11 0
10 6 -7 0
7 -10 -5 0
-4 2 -9 0
1 11 -2 0
12 5 -2 0
-1 10 -2 0
-6 4 -12 0
9 12 4 0
-7 -12 4 0
11 8 4 0
-11 -3 10 0
10 1 -8 0
1 -4 7 0
6 3 -11 0
-6 4 -12 0
-11 -6 -3 0
-3 2 9 0
-4 -3 -11 0
1 2 7 0
-5 2 -7 0
-5 -1 -12 0
-10 -7 4 0
-7 -9 -11 0
-1 -10 -3 0
-12 5 -1 0
-12 10 -3 0
1 7 5 0
12 -7 1 0
-12 -7 -6 0
7 -4 -3 0
-12 8 6 0
-4 -9 2 0
8 -5 7 0
-8 11 4 0
-2 -8 11 0
3 5 -9 0
-5 9 -1 0
-12 -3 2 0
-3 -10 -8 0
6 -7 3 0
6 1 12 0
7 12 2 0
-12 9 1 0
